random 50 10 612 99999
10 10 10 10 10 10 10 10 10 10 10 10 10 10 10 10 10 10 10 10 10 10 10 10 10 10 10 10 10 10 10 10 10 10 10 10 10 10 10 10 10 10 10 10 10 10 10 10 10 10
2 32 19 0 4
0 0 17
0 1 12
1 0 81
1 1 71
2 35 29 0 4
0 0 27
0 1 91
1 0 77
1 1 2
2 29 6 0 4
0 0 71
0 1 57
1 0 42
1 1 83
2 25 22 0 4
0 0 18
0 1 14
1 0 49
1 1 80
2 43 46 0 4
0 0 60
0 1 100
1 0 23
1 1 36
2 48 9 0 4
0 0 95
0 1 11
1 0 63
1 1 30
2 18 38 0 4
0 0 62
0 1 63
1 0 81
1 1 44
2 24 37 0 4
0 0 63
0 1 97
1 0 37
1 1 86
2 49 43 0 4
0 0 14
0 1 63
1 0 6
1 1 25
2 33 30 0 4
0 0 38
0 1 0
1 0 70
1 1 46
2 16 39 0 4
0 0 83
0 1 70
1 0 33
1 1 20
2 43 39 0 4
0 0 47
0 1 41
1 0 35
1 1 6
2 42 45 0 4
0 0 26
0 1 59
1 0 62
1 1 83
2 1 28 0 4
0 0 0
0 1 35
1 0 99
1 1 41
2 33 18 0 4
0 0 46
0 1 88
1 0 0
1 1 77
2 2 39 0 4
0 0 96
0 1 87
1 0 81
1 1 17
2 27 15 0 4
0 0 35
0 1 73
1 0 40
1 1 84
2 15 7 0 4
0 0 40
0 1 13
1 0 17
1 1 29
2 14 15 0 4
0 0 63
0 1 8
1 0 38
1 1 70
2 1 30 0 4
0 0 63
0 1 55
1 0 11
1 1 39
2 33 31 0 4
0 0 96
0 1 97
1 0 95
1 1 17
2 12 38 0 4
0 0 70
0 1 63
1 0 93
1 1 6
2 32 17 0 4
0 0 51
0 1 97
1 0 87
1 1 9
2 24 30 0 4
0 0 100
0 1 76
1 0 67
1 1 65
2 48 36 0 4
0 0 79
0 1 9
1 0 27
1 1 69
2 13 37 0 4
0 0 96
0 1 71
1 0 31
1 1 68
2 26 14 0 4
0 0 99
0 1 56
1 0 87
1 1 80
2 40 22 0 4
0 0 92
0 1 7
1 0 74
1 1 46
2 3 43 0 4
0 0 58
0 1 35
1 0 81
1 1 80
2 42 7 0 4
0 0 7
0 1 98
1 0 67
1 1 87
2 33 5 0 4
0 0 74
0 1 62
1 0 74
1 1 32
2 16 40 0 4
0 0 20
0 1 31
1 0 6
1 1 7
2 35 45 0 4
0 0 82
0 1 39
1 0 91
1 1 33
2 18 37 0 4
0 0 52
0 1 1
1 0 81
1 1 35
2 36 21 0 4
0 0 39
0 1 86
1 0 41
1 1 1
2 42 20 0 4
0 0 3
0 1 56
1 0 94
1 1 22
2 33 11 0 4
0 0 7
0 1 9
1 0 25
1 1 57
2 36 29 0 4
0 0 43
0 1 51
1 0 4
1 1 57
2 27 22 0 4
0 0 57
0 1 31
1 0 43
1 1 71
2 10 37 0 4
0 0 77
0 1 67
1 0 25
1 1 56
2 0 44 0 4
0 0 3
0 1 69
1 0 83
1 1 37
2 34 30 0 4
0 0 94
0 1 6
1 0 1
1 1 94
2 10 43 0 4
0 0 99
0 1 48
1 0 55
1 1 95
2 25 31 0 4
0 0 83
0 1 45
1 0 49
1 1 16
2 10 12 0 4
0 0 52
0 1 37
1 0 70
1 1 84
2 9 13 0 4
0 0 59
0 1 100
1 0 23
1 1 40
2 4 44 0 4
0 0 3
0 1 72
1 0 77
1 1 7
2 8 27 0 4
0 0 0
0 1 89
1 0 10
1 1 76
2 32 43 0 4
0 0 60
0 1 57
1 0 19
1 1 88
2 16 36 0 4
0 0 59
0 1 39
1 0 39
1 1 60
2 25 47 0 4
0 0 28
0 1 10
1 0 22
1 1 70
2 34 47 0 4
0 0 77
0 1 96
1 0 18
1 1 98
2 40 33 0 4
0 0 94
0 1 46
1 0 71
1 1 90
2 14 47 0 4
0 0 38
0 1 46
1 0 9
1 1 49
2 1 22 0 4
0 0 72
0 1 95
1 0 91
1 1 8
2 38 23 0 4
0 0 45
0 1 39
1 0 89
1 1 24
2 2 43 0 4
0 0 84
0 1 53
1 0 29
1 1 41
2 26 27 0 4
0 0 0
0 1 96
1 0 57
1 1 98
2 36 47 0 4
0 0 86
0 1 71
1 0 26
1 1 58
2 12 37 0 4
0 0 32
0 1 55
1 0 94
1 1 62
2 2 14 0 4
0 0 14
0 1 5
1 0 1
1 1 8
2 12 13 0 4
0 0 2
0 1 29
1 0 24
1 1 27
2 21 29 0 4
0 0 23
0 1 24
1 0 10
1 1 33
2 21 39 0 4
0 0 10
0 1 43
1 0 74
1 1 66
2 48 13 0 4
0 0 21
0 1 17
1 0 84
1 1 98
2 33 15 0 4
0 0 9
0 1 8
1 0 33
1 1 67
2 40 34 0 4
0 0 87
0 1 76
1 0 56
1 1 62
2 44 13 0 4
0 0 93
0 1 13
1 0 82
1 1 37
2 9 47 0 4
0 0 43
0 1 84
1 0 18
1 1 25
2 0 29 0 4
0 0 40
0 1 45
1 0 70
1 1 49
2 40 5 0 4
0 0 49
0 1 42
1 0 79
1 1 81
2 42 28 0 4
0 0 65
0 1 42
1 0 89
1 1 96
2 11 6 0 4
0 0 0
0 1 66
1 0 87
1 1 49
2 6 47 0 4
0 0 7
0 1 48
1 0 8
1 1 97
2 26 47 0 4
0 0 64
0 1 96
1 0 17
1 1 7
2 24 3 0 4
0 0 21
0 1 32
1 0 55
1 1 73
2 49 30 0 4
0 0 72
0 1 52
1 0 35
1 1 35
2 18 45 0 4
0 0 18
0 1 94
1 0 48
1 1 2
2 42 4 0 4
0 0 75
0 1 82
1 0 91
1 1 64
2 19 20 0 4
0 0 62
0 1 43
1 0 28
1 1 13
2 36 39 0 4
0 0 0
0 1 10
1 0 6
1 1 82
2 1 29 0 4
0 0 62
0 1 61
1 0 36
1 1 68
2 29 46 0 4
0 0 71
0 1 69
1 0 40
1 1 59
2 17 47 0 4
0 0 96
0 1 58
1 0 92
1 1 15
2 48 14 0 4
0 0 26
0 1 87
1 0 48
1 1 56
2 34 20 0 4
0 0 14
0 1 29
1 0 64
1 1 85
2 28 7 0 4
0 0 61
0 1 0
1 0 29
1 1 64
2 8 49 0 4
0 0 79
0 1 52
1 0 87
1 1 24
2 40 12 0 4
0 0 12
0 1 42
1 0 97
1 1 3
2 0 41 0 4
0 0 7
0 1 98
1 0 19
1 1 97
2 6 15 0 4
0 0 91
0 1 66
1 0 96
1 1 82
2 12 29 0 4
0 0 5
0 1 68
1 0 3
1 1 19
2 17 34 0 4
0 0 54
0 1 1
1 0 54
1 1 1
2 48 25 0 4
0 0 42
0 1 83
1 0 66
1 1 21
2 19 7 0 4
0 0 20
0 1 0
1 0 55
1 1 4
2 26 20 0 4
0 0 58
0 1 98
1 0 31
1 1 66
2 13 14 0 4
0 0 90
0 1 79
1 0 94
1 1 26
2 0 34 0 4
0 0 58
0 1 68
1 0 16
1 1 16
2 9 23 0 4
0 0 8
0 1 64
1 0 46
1 1 74
2 3 12 0 4
0 0 83
0 1 75
1 0 59
1 1 24
2 45 6 0 4
0 0 70
0 1 33
1 0 21
1 1 40
2 12 7 0 4
0 0 37
0 1 56
1 0 87
1 1 63
2 12 45 0 4
0 0 17
0 1 93
1 0 5
1 1 96
2 46 30 0 4
0 0 38
0 1 92
1 0 84
1 1 70
2 0 12 0 4
0 0 28
0 1 55
1 0 70
1 1 48
2 16 25 0 4
0 0 46
0 1 38
1 0 18
1 1 18
2 14 39 0 4
0 0 61
0 1 24
1 0 24
1 1 73
2 35 7 0 4
0 0 98
0 1 62
1 0 71
1 1 60
2 44 31 0 4
0 0 30
0 1 54
1 0 96
1 1 86
2 48 38 0 4
0 0 60
0 1 81
1 0 88
1 1 72
2 9 15 0 4
0 0 16
0 1 13
1 0 48
1 1 87
2 26 5 0 4
0 0 38
0 1 93
1 0 98
1 1 84
2 8 31 0 4
0 0 28
0 1 34
1 0 79
1 1 40
2 43 5 0 4
0 0 100
0 1 18
1 0 77
1 1 69
2 18 5 0 4
0 0 69
0 1 91
1 0 6
1 1 41
2 8 35 0 4
0 0 87
0 1 71
1 0 65
1 1 2
2 0 32 0 4
0 0 45
0 1 42
1 0 69
1 1 4
2 48 2 0 4
0 0 43
0 1 16
1 0 28
1 1 20
2 13 22 0 4
0 0 87
0 1 21
1 0 1
1 1 45
2 9 44 0 4
0 0 4
0 1 85
1 0 71
1 1 19
2 26 46 0 4
0 0 2
0 1 42
1 0 47
1 1 60
2 35 14 0 4
0 0 12
0 1 46
1 0 42
1 1 19
2 16 4 0 4
0 0 51
0 1 11
1 0 53
1 1 28
2 45 46 0 4
0 0 92
0 1 32
1 0 44
1 1 35
2 37 7 0 4
0 0 94
0 1 40
1 0 83
1 1 50
2 48 24 0 4
0 0 92
0 1 85
1 0 78
1 1 85
2 34 31 0 4
0 0 64
0 1 47
1 0 53
1 1 6
2 32 13 0 4
0 0 32
0 1 14
1 0 43
1 1 78
2 41 14 0 4
0 0 59
0 1 75
1 0 63
1 1 77
2 40 45 0 4
0 0 52
0 1 25
1 0 67
1 1 52
2 20 7 0 4
0 0 33
0 1 9
1 0 80
1 1 29
2 18 4 0 4
0 0 83
0 1 8
1 0 96
1 1 96
2 0 27 0 4
0 0 59
0 1 85
1 0 84
1 1 40
2 25 30 0 4
0 0 54
0 1 44
1 0 28
1 1 56
2 40 23 0 4
0 0 58
0 1 5
1 0 90
1 1 55
2 35 37 0 4
0 0 82
0 1 25
1 0 51
1 1 81
2 10 39 0 4
0 0 64
0 1 59
1 0 18
1 1 52
2 41 2 0 4
0 0 52
0 1 26
1 0 27
1 1 62
2 11 13 0 4
0 0 82
0 1 81
1 0 11
1 1 27
2 41 42 0 4
0 0 99
0 1 14
1 0 25
1 1 34
2 32 46 0 4
0 0 59
0 1 1
1 0 5
1 1 55
2 25 49 0 4
0 0 92
0 1 67
1 0 66
1 1 2
2 17 31 0 4
0 0 86
0 1 58
1 0 28
1 1 80
2 21 30 0 4
0 0 21
0 1 41
1 0 65
1 1 78
2 34 4 0 4
0 0 62
0 1 13
1 0 8
1 1 40
2 48 4 0 4
0 0 23
0 1 6
1 0 48
1 1 86
2 42 47 0 4
0 0 16
0 1 6
1 0 65
1 1 74
2 3 20 0 4
0 0 12
0 1 55
1 0 64
1 1 89
2 27 47 0 4
0 0 10
0 1 63
1 0 48
1 1 43
2 32 37 0 4
0 0 58
0 1 93
1 0 19
1 1 99
2 30 14 0 4
0 0 69
0 1 68
1 0 99
1 1 14
2 45 47 0 4
0 0 22
0 1 26
1 0 74
1 1 91
2 33 37 0 4
0 0 49
0 1 68
1 0 12
1 1 88
2 27 23 0 4
0 0 46
0 1 47
1 0 8
1 1 75
2 33 36 0 4
0 0 65
0 1 74
1 0 36
1 1 3
2 37 38 0 4
0 0 69
0 1 43
1 0 38
1 1 17
2 41 34 0 4
0 0 41
0 1 23
1 0 9
1 1 42
2 43 15 0 4
0 0 94
0 1 42
1 0 53
1 1 77
2 1 4 0 4
0 0 37
0 1 4
1 0 25
1 1 69
2 8 0 0 4
0 0 47
0 1 22
1 0 71
1 1 54
2 27 30 0 4
0 0 19
0 1 43
1 0 11
1 1 73
2 0 10 0 4
0 0 82
0 1 79
1 0 55
1 1 14
2 28 14 0 4
0 0 11
0 1 12
1 0 4
1 1 2
2 49 38 0 4
0 0 32
0 1 66
1 0 46
1 1 21
2 38 31 0 4
0 0 43
0 1 6
1 0 37
1 1 53
2 11 22 0 4
0 0 85
0 1 68
1 0 33
1 1 6
2 36 31 0 4
0 0 7
0 1 26
1 0 30
1 1 86
2 4 7 0 4
0 0 21
0 1 40
1 0 18
1 1 79
2 43 7 0 4
0 0 8
0 1 86
1 0 28
1 1 85
2 0 35 0 4
0 0 47
0 1 32
1 0 90
1 1 9
2 18 31 0 4
0 0 83
0 1 60
1 0 7
1 1 2
2 2 15 0 4
0 0 38
0 1 89
1 0 34
1 1 66
2 14 6 0 4
0 0 63
0 1 11
1 0 4
1 1 78
2 24 21 0 4
0 0 14
0 1 49
1 0 73
1 1 15
2 24 7 0 4
0 0 78
0 1 72
1 0 92
1 1 72
2 11 14 0 4
0 0 60
0 1 15
1 0 69
1 1 53
2 49 35 0 4
0 0 81
0 1 7
1 0 75
1 1 77
2 33 17 0 4
0 0 26
0 1 37
1 0 48
1 1 71
2 32 28 0 4
0 0 50
0 1 77
1 0 24
1 1 38
2 25 11 0 4
0 0 6
0 1 100
1 0 0
1 1 26
2 8 20 0 4
0 0 65
0 1 20
1 0 48
1 1 16
2 19 21 0 4
0 0 54
0 1 97
1 0 32
1 1 12
2 24 18 0 4
0 0 32
0 1 62
1 0 14
1 1 87
2 34 18 0 4
0 0 12
0 1 21
1 0 19
1 1 85
2 8 22 0 4
0 0 13
0 1 57
1 0 62
1 1 45
2 8 17 0 4
0 0 29
0 1 68
1 0 1
1 1 18
2 33 2 0 4
0 0 43
0 1 73
1 0 34
1 1 35
2 36 22 0 4
0 0 94
0 1 65
1 0 83
1 1 76
2 1 34 0 4
0 0 65
0 1 47
1 0 99
1 1 0
2 41 15 0 4
0 0 52
0 1 40
1 0 94
1 1 13
2 0 14 0 4
0 0 19
0 1 86
1 0 6
1 1 67
2 40 26 0 4
0 0 46
0 1 0
1 0 51
1 1 59
2 1 38 0 4
0 0 6
0 1 14
1 0 93
1 1 93
2 32 27 0 4
0 0 41
0 1 70
1 0 55
1 1 51
2 3 22 0 4
0 0 54
0 1 87
1 0 4
1 1 82
2 42 35 0 4
0 0 48
0 1 59
1 0 5
1 1 69
2 41 1 0 4
0 0 49
0 1 38
1 0 100
1 1 87
2 49 33 0 4
0 0 14
0 1 24
1 0 45
1 1 20
2 0 31 0 4
0 0 19
0 1 24
1 0 58
1 1 68
2 38 15 0 4
0 0 61
0 1 31
1 0 84
1 1 86
2 35 36 0 4
0 0 7
0 1 100
1 0 52
1 1 80
2 33 29 0 4
0 0 19
0 1 32
1 0 2
1 1 47
2 40 2 0 4
0 0 59
0 1 83
1 0 32
1 1 4
2 4 46 0 4
0 0 83
0 1 68
1 0 96
1 1 3
2 16 46 0 4
0 0 81
0 1 66
1 0 53
1 1 1
2 48 22 0 4
0 0 28
0 1 6
1 0 64
1 1 86
2 13 31 0 4
0 0 3
0 1 43
1 0 17
1 1 98
2 40 49 0 4
0 0 37
0 1 40
1 0 9
1 1 56
2 48 31 0 4
0 0 88
0 1 54
1 0 92
1 1 20
2 25 29 0 4
0 0 80
0 1 10
1 0 46
1 1 60
2 2 6 0 4
0 0 46
0 1 48
1 0 71
1 1 71
2 34 22 0 4
0 0 69
0 1 94
1 0 97
1 1 74
2 37 30 0 4
0 0 3
0 1 68
1 0 62
1 1 56
2 32 21 0 4
0 0 14
0 1 23
1 0 65
1 1 1
2 30 6 0 4
0 0 95
0 1 90
1 0 78
1 1 27
2 9 36 0 4
0 0 61
0 1 99
1 0 89
1 1 1
2 11 35 0 4
0 0 82
0 1 68
1 0 1
1 1 71
2 24 4 0 4
0 0 25
0 1 17
1 0 70
1 1 26
2 48 23 0 4
0 0 69
0 1 44
1 0 24
1 1 79
2 18 42 0 4
0 0 46
0 1 67
1 0 82
1 1 57
2 1 9 0 4
0 0 100
0 1 22
1 0 25
1 1 92
2 16 23 0 4
0 0 7
0 1 57
1 0 43
1 1 68
2 34 19 0 4
0 0 100
0 1 77
1 0 26
1 1 92
2 9 5 0 4
0 0 78
0 1 98
1 0 48
1 1 33
2 1 7 0 4
0 0 7
0 1 33
1 0 62
1 1 100
2 35 31 0 4
0 0 36
0 1 3
1 0 11
1 1 68
2 4 37 0 4
0 0 76
0 1 63
1 0 6
1 1 94
2 16 30 0 4
0 0 36
0 1 70
1 0 69
1 1 58
2 0 39 0 4
0 0 67
0 1 53
1 0 69
1 1 87
2 2 46 0 4
0 0 78
0 1 41
1 0 96
1 1 56
2 24 34 0 4
0 0 93
0 1 43
1 0 1
1 1 18
2 33 6 0 4
0 0 6
0 1 21
1 0 87
1 1 52
2 10 19 0 4
0 0 30
0 1 11
1 0 20
1 1 54
2 17 23 0 4
0 0 79
0 1 4
1 0 81
1 1 53
2 18 20 0 4
0 0 16
0 1 55
1 0 84
1 1 6
2 35 4 0 4
0 0 91
0 1 16
1 0 100
1 1 28
2 35 12 0 4
0 0 17
0 1 4
1 0 74
1 1 84
2 48 35 0 4
0 0 24
0 1 70
1 0 20
1 1 90
2 5 30 0 4
0 0 25
0 1 51
1 0 98
1 1 12
2 12 30 0 4
0 0 81
0 1 80
1 0 24
1 1 57
2 36 30 0 4
0 0 43
0 1 39
1 0 13
1 1 5
2 32 14 0 4
0 0 44
0 1 23
1 0 10
1 1 40
2 8 28 0 4
0 0 15
0 1 78
1 0 27
1 1 65
2 2 5 0 4
0 0 45
0 1 67
1 0 89
1 1 52
2 26 28 0 4
0 0 85
0 1 1
1 0 0
1 1 49
2 40 11 0 4
0 0 75
0 1 14
1 0 80
1 1 95
2 19 22 0 4
0 0 77
0 1 97
1 0 63
1 1 100
2 9 2 0 4
0 0 51
0 1 42
1 0 95
1 1 35
2 32 33 0 4
0 0 7
0 1 27
1 0 9
1 1 37
2 16 13 0 4
0 0 96
0 1 7
1 0 2
1 1 14
2 16 38 0 4
0 0 96
0 1 77
1 0 74
1 1 14
2 8 26 0 4
0 0 48
0 1 81
1 0 46
1 1 69
2 2 37 0 4
0 0 12
0 1 85
1 0 100
1 1 4
2 3 21 0 4
0 0 63
0 1 83
1 0 91
1 1 23
2 1 5 0 4
0 0 47
0 1 29
1 0 1
1 1 85
2 42 44 0 4
0 0 37
0 1 24
1 0 49
1 1 89
2 31 39 0 4
0 0 72
0 1 92
1 0 98
1 1 10
2 3 7 0 4
0 0 14
0 1 87
1 0 4
1 1 58
2 3 37 0 4
0 0 94
0 1 61
1 0 29
1 1 33
2 8 21 0 4
0 0 54
0 1 97
1 0 19
1 1 47
2 25 18 0 4
0 0 96
0 1 36
1 0 86
1 1 63
2 12 47 0 4
0 0 12
0 1 98
1 0 19
1 1 33
2 33 23 0 4
0 0 4
0 1 14
1 0 59
1 1 81
2 18 2 0 4
0 0 45
0 1 65
1 0 44
1 1 11
2 20 23 0 4
0 0 68
0 1 52
1 0 77
1 1 46
2 1 23 0 4
0 0 77
0 1 64
1 0 54
1 1 3
2 8 14 0 4
0 0 17
0 1 64
1 0 78
1 1 100
2 49 23 0 4
0 0 39
0 1 67
1 0 33
1 1 74
2 26 44 0 4
0 0 44
0 1 49
1 0 0
1 1 86
2 9 4 0 4
0 0 0
0 1 10
1 0 26
1 1 6
2 17 18 0 4
0 0 16
0 1 35
1 0 17
1 1 51
2 34 45 0 4
0 0 30
0 1 70
1 0 78
1 1 55
2 17 13 0 4
0 0 78
0 1 95
1 0 47
1 1 70
2 33 22 0 4
0 0 14
0 1 30
1 0 87
1 1 37
2 42 15 0 4
0 0 77
0 1 7
1 0 45
1 1 35
2 41 4 0 4
0 0 65
0 1 28
1 0 41
1 1 63
2 25 43 0 4
0 0 91
0 1 25
1 0 55
1 1 32
2 4 30 0 4
0 0 18
0 1 60
1 0 2
1 1 93
2 2 23 0 4
0 0 64
0 1 39
1 0 23
1 1 73
2 27 13 0 4
0 0 83
0 1 55
1 0 77
1 1 3
2 35 20 0 4
0 0 50
0 1 100
1 0 70
1 1 24
2 19 44 0 4
0 0 42
0 1 64
1 0 84
1 1 4
2 41 33 0 4
0 0 29
0 1 76
1 0 80
1 1 75
2 32 49 0 4
0 0 100
0 1 68
1 0 37
1 1 43
2 13 7 0 4
0 0 49
0 1 5
1 0 40
1 1 44
2 24 2 0 4
0 0 62
0 1 93
1 0 64
1 1 19
2 41 31 0 4
0 0 30
0 1 11
1 0 83
1 1 14
2 32 12 0 4
0 0 94
0 1 88
1 0 92
1 1 51
2 33 27 0 4
0 0 69
0 1 2
1 0 53
1 1 47
2 32 4 0 4
0 0 46
0 1 36
1 0 39
1 1 65
2 1 10 0 4
0 0 89
0 1 31
1 0 2
1 1 42
2 43 44 0 4
0 0 89
0 1 37
1 0 1
1 1 59
2 3 44 0 4
0 0 93
0 1 18
1 0 46
1 1 96
2 32 47 0 4
0 0 3
0 1 25
1 0 51
1 1 68
2 19 23 0 4
0 0 91
0 1 28
1 0 50
1 1 36
2 19 36 0 4
0 0 95
0 1 88
1 0 67
1 1 60
2 20 6 0 4
0 0 75
0 1 12
1 0 69
1 1 80
2 28 31 0 4
0 0 28
0 1 77
1 0 33
1 1 49
2 13 39 0 4
0 0 93
0 1 53
1 0 63
1 1 29
2 24 26 0 4
0 0 2
0 1 53
1 0 2
1 1 30
2 46 39 0 4
0 0 53
0 1 65
1 0 56
1 1 58
2 21 31 0 4
0 0 2
0 1 4
1 0 12
1 1 50
2 49 47 0 4
0 0 58
0 1 14
1 0 24
1 1 69
2 9 42 0 4
0 0 0
0 1 51
1 0 43
1 1 100
2 41 22 0 4
0 0 68
0 1 74
1 0 45
1 1 92
2 42 29 0 4
0 0 90
0 1 65
1 0 55
1 1 88
2 44 39 0 4
0 0 14
0 1 42
1 0 5
1 1 51
2 4 5 0 4
0 0 22
0 1 53
1 0 23
1 1 45
2 40 36 0 4
0 0 7
0 1 4
1 0 6
1 1 36
2 10 14 0 4
0 0 17
0 1 32
1 0 13
1 1 10
2 45 39 0 4
0 0 28
0 1 96
1 0 100
1 1 63
2 0 25 0 4
0 0 44
0 1 14
1 0 8
1 1 83
2 32 39 0 4
0 0 92
0 1 43
1 0 89
1 1 26
2 48 39 0 4
0 0 56
0 1 43
1 0 71
1 1 56
2 1 26 0 4
0 0 0
0 1 26
1 0 83
1 1 74
2 34 36 0 4
0 0 88
0 1 24
1 0 49
1 1 93
2 25 46 0 4
0 0 64
0 1 94
1 0 94
1 1 23
2 33 38 0 4
0 0 97
0 1 39
1 0 10
1 1 52
2 26 38 0 4
0 0 92
0 1 94
1 0 68
1 1 24
2 42 3 0 4
0 0 31
0 1 65
1 0 62
1 1 49
2 24 20 0 4
0 0 49
0 1 68
1 0 50
1 1 76
2 11 39 0 4
0 0 11
0 1 21
1 0 81
1 1 11
2 33 14 0 4
0 0 88
0 1 29
1 0 67
1 1 99
2 44 23 0 4
0 0 29
0 1 40
1 0 10
1 1 92
2 37 14 0 4
0 0 27
0 1 74
1 0 78
1 1 92
2 16 47 0 4
0 0 31
0 1 27
1 0 23
1 1 28
2 46 31 0 4
0 0 22
0 1 76
1 0 24
1 1 59
2 45 23 0 4
0 0 57
0 1 13
1 0 54
1 1 95
2 17 37 0 4
0 0 94
0 1 43
1 0 37
1 1 71
2 32 45 0 4
0 0 73
0 1 47
1 0 20
1 1 24
2 16 31 0 4
0 0 48
0 1 78
1 0 71
1 1 44
2 17 25 0 4
0 0 63
0 1 26
1 0 38
1 1 70
2 16 33 0 4
0 0 59
0 1 42
1 0 56
1 1 26
2 34 21 0 4
0 0 15
0 1 17
1 0 41
1 1 89
2 17 10 0 4
0 0 18
0 1 20
1 0 95
1 1 54
2 19 11 0 4
0 0 60
0 1 48
1 0 12
1 1 43
2 41 35 0 4
0 0 15
0 1 22
1 0 56
1 1 17
2 4 21 0 4
0 0 68
0 1 28
1 0 29
1 1 88
2 10 26 0 4
0 0 71
0 1 21
1 0 19
1 1 98
2 33 43 0 4
0 0 76
0 1 13
1 0 56
1 1 23
2 8 6 0 4
0 0 36
0 1 70
1 0 52
1 1 47
2 16 1 0 4
0 0 54
0 1 71
1 0 10
1 1 74
2 5 29 0 4
0 0 24
0 1 24
1 0 69
1 1 7
2 16 14 0 4
0 0 53
0 1 53
1 0 44
1 1 66
2 42 34 0 4
0 0 51
0 1 70
1 0 55
1 1 32
2 33 1 0 4
0 0 4
0 1 11
1 0 39
1 1 84
2 34 39 0 4
0 0 15
0 1 95
1 0 76
1 1 56
2 26 43 0 4
0 0 97
0 1 15
1 0 12
1 1 76
2 49 19 0 4
0 0 94
0 1 32
1 0 82
1 1 15
2 3 27 0 4
0 0 55
0 1 58
1 0 1
1 1 24
2 34 11 0 4
0 0 55
0 1 17
1 0 84
1 1 73
2 26 3 0 4
0 0 7
0 1 22
1 0 85
1 1 20
2 44 37 0 4
0 0 7
0 1 47
1 0 61
1 1 36
2 16 19 0 4
0 0 27
0 1 16
1 0 94
1 1 44
2 16 45 0 4
0 0 12
0 1 31
1 0 71
1 1 19
2 12 23 0 4
0 0 36
0 1 30
1 0 65
1 1 50
2 24 16 0 4
0 0 3
0 1 63
1 0 88
1 1 30
2 16 44 0 4
0 0 8
0 1 94
1 0 51
1 1 10
2 10 29 0 4
0 0 45
0 1 52
1 0 59
1 1 78
2 9 21 0 4
0 0 52
0 1 97
1 0 36
1 1 12
2 13 30 0 4
0 0 35
0 1 42
1 0 12
1 1 35
2 42 23 0 4
0 0 11
0 1 98
1 0 98
1 1 31
2 41 10 0 4
0 0 55
0 1 73
1 0 87
1 1 14
2 10 6 0 4
0 0 62
0 1 17
1 0 83
1 1 59
2 46 7 0 4
0 0 81
0 1 82
1 0 23
1 1 36
2 25 3 0 4
0 0 12
0 1 58
1 0 3
1 1 79
2 2 11 0 4
0 0 28
0 1 32
1 0 26
1 1 48
2 18 39 0 4
0 0 32
0 1 73
1 0 19
1 1 84
2 17 6 0 4
0 0 11
0 1 39
1 0 73
1 1 14
2 26 45 0 4
0 0 11
0 1 32
1 0 38
1 1 38
2 9 34 0 4
0 0 58
0 1 38
1 0 47
1 1 80
2 27 39 0 4
0 0 77
0 1 42
1 0 86
1 1 81
2 5 15 0 4
0 0 39
0 1 63
1 0 1
1 1 11
2 8 44 0 4
0 0 21
0 1 83
1 0 89
1 1 79
2 35 23 0 4
0 0 13
0 1 19
1 0 83
1 1 25
2 27 44 0 4
0 0 42
0 1 50
1 0 42
1 1 40
2 10 21 0 4
0 0 3
0 1 88
1 0 75
1 1 38
2 45 22 0 4
0 0 40
0 1 71
1 0 70
1 1 49
2 8 36 0 4
0 0 88
0 1 7
1 0 60
1 1 9
2 43 20 0 4
0 0 82
0 1 71
1 0 70
1 1 73
2 42 36 0 4
0 0 86
0 1 43
1 0 100
1 1 50
2 12 46 0 4
0 0 75
0 1 11
1 0 77
1 1 63
2 24 42 0 4
0 0 11
0 1 4
1 0 56
1 1 65
2 33 42 0 4
0 0 28
0 1 7
1 0 63
1 1 62
2 17 21 0 4
0 0 11
0 1 88
1 0 19
1 1 97
2 16 2 0 4
0 0 10
0 1 93
1 0 80
1 1 62
2 45 30 0 4
0 0 20
0 1 63
1 0 35
1 1 22
2 13 38 0 4
0 0 70
0 1 47
1 0 52
1 1 25
2 40 7 0 4
0 0 78
0 1 74
1 0 14
1 1 56
2 0 20 0 4
0 0 80
0 1 84
1 0 35
1 1 67
2 48 6 0 4
0 0 91
0 1 89
1 0 48
1 1 92
2 37 15 0 4
0 0 73
0 1 80
1 0 87
1 1 19
2 10 45 0 4
0 0 6
0 1 63
1 0 81
1 1 67
2 27 5 0 4
0 0 51
0 1 67
1 0 93
1 1 12
2 3 6 0 4
0 0 79
0 1 45
1 0 15
1 1 84
2 41 3 0 4
0 0 88
0 1 74
1 0 53
1 1 100
2 43 12 0 4
0 0 12
0 1 29
1 0 63
1 1 12
2 2 12 0 4
0 0 90
0 1 15
1 0 4
1 1 91
2 36 44 0 4
0 0 36
0 1 59
1 0 23
1 1 85
2 29 47 0 4
0 0 48
0 1 86
1 0 45
1 1 9
2 48 5 0 4
0 0 76
0 1 49
1 0 49
1 1 79
2 29 31 0 4
0 0 83
0 1 78
1 0 49
1 1 49
2 26 30 0 4
0 0 61
0 1 4
1 0 76
1 1 67
2 44 29 0 4
0 0 93
0 1 53
1 0 52
1 1 11
2 9 22 0 4
0 0 3
0 1 77
1 0 58
1 1 19
2 24 36 0 4
0 0 11
0 1 78
1 0 84
1 1 63
2 8 11 0 4
0 0 75
0 1 65
1 0 61
1 1 30
2 0 38 0 4
0 0 95
0 1 0
1 0 74
1 1 61
2 28 6 0 4
0 0 58
0 1 90
1 0 13
1 1 54
2 26 19 0 4
0 0 1
0 1 74
1 0 99
1 1 38
2 45 38 0 4
0 0 13
0 1 87
1 0 69
1 1 6
2 40 3 0 4
0 0 22
0 1 5
1 0 46
1 1 28
2 40 29 0 4
0 0 58
0 1 84
1 0 31
1 1 90
2 21 38 0 4
0 0 57
0 1 22
1 0 74
1 1 70
2 10 7 0 4
0 0 73
0 1 1
1 0 0
1 1 61
2 41 44 0 4
0 0 62
0 1 74
1 0 79
1 1 40
2 17 45 0 4
0 0 91
0 1 24
1 0 75
1 1 71
2 10 46 0 4
0 0 74
0 1 92
1 0 6
1 1 69
2 43 14 0 4
0 0 25
0 1 16
1 0 31
1 1 9
2 24 35 0 4
0 0 96
0 1 20
1 0 53
1 1 18
2 17 42 0 4
0 0 55
0 1 63
1 0 0
1 1 86
2 32 42 0 4
0 0 62
0 1 52
1 0 83
1 1 13
2 36 13 0 4
0 0 97
0 1 92
1 0 100
1 1 66
2 26 37 0 4
0 0 65
0 1 30
1 0 35
1 1 36
2 15 47 0 4
0 0 54
0 1 29
1 0 68
1 1 38
2 29 45 0 4
0 0 30
0 1 35
1 0 38
1 1 63
2 1 44 0 4
0 0 25
0 1 66
1 0 32
1 1 27
2 8 39 0 4
0 0 24
0 1 72
1 0 35
1 1 4
2 9 20 0 4
0 0 8
0 1 19
1 0 25
1 1 27
2 42 11 0 4
0 0 16
0 1 82
1 0 45
1 1 50
2 22 15 0 4
0 0 23
0 1 49
1 0 35
1 1 62
2 24 17 0 4
0 0 15
0 1 0
1 0 74
1 1 48
2 0 45 0 4
0 0 17
0 1 85
1 0 99
1 1 15
2 2 22 0 4
0 0 64
0 1 82
1 0 80
1 1 81
2 4 14 0 4
0 0 5
0 1 85
1 0 75
1 1 19
2 18 21 0 4
0 0 44
0 1 96
1 0 44
1 1 1
2 41 47 0 4
0 0 6
0 1 53
1 0 94
1 1 67
2 10 11 0 4
0 0 63
0 1 53
1 0 22
1 1 96
2 41 45 0 4
0 0 14
0 1 23
1 0 58
1 1 66
2 37 31 0 4
0 0 88
0 1 79
1 0 21
1 1 82
2 12 5 0 4
0 0 21
0 1 86
1 0 19
1 1 80
2 10 15 0 4
0 0 51
0 1 44
1 0 85
1 1 92
2 26 39 0 4
0 0 22
0 1 51
1 0 40
1 1 42
2 35 13 0 4
0 0 68
0 1 17
1 0 30
1 1 14
2 27 4 0 4
0 0 82
0 1 98
1 0 58
1 1 93
2 32 36 0 4
0 0 75
0 1 34
1 0 88
1 1 61
2 11 28 0 4
0 0 58
0 1 35
1 0 30
1 1 58
2 20 39 0 4
0 0 34
0 1 58
1 0 66
1 1 78
2 33 7 0 4
0 0 37
0 1 68
1 0 87
1 1 99
2 24 41 0 4
0 0 97
0 1 78
1 0 24
1 1 59
2 43 45 0 4
0 0 76
0 1 5
1 0 97
1 1 49
2 32 7 0 4
0 0 92
0 1 40
1 0 10
1 1 34
2 26 15 0 4
0 0 94
0 1 61
1 0 50
1 1 90
2 18 13 0 4
0 0 7
0 1 83
1 0 47
1 1 4
2 49 36 0 4
0 0 30
0 1 93
1 0 96
1 1 93
2 26 22 0 4
0 0 57
0 1 97
1 0 30
1 1 90
2 1 6 0 4
0 0 71
0 1 47
1 0 67
1 1 8
2 22 14 0 4
0 0 36
0 1 35
1 0 78
1 1 62
2 0 49 0 4
0 0 16
0 1 79
1 0 63
1 1 100
2 41 25 0 4
0 0 66
0 1 22
1 0 40
1 1 86
2 1 21 0 4
0 0 51
0 1 59
1 0 78
1 1 74
2 9 30 0 4
0 0 38
0 1 42
1 0 89
1 1 17
2 19 15 0 4
0 0 35
0 1 63
1 0 53
1 1 64
2 43 22 0 4
0 0 63
0 1 60
1 0 96
1 1 95
2 16 21 0 4
0 0 72
0 1 74
1 0 72
1 1 52
2 42 2 0 4
0 0 42
0 1 27
1 0 91
1 1 31
2 9 18 0 4
0 0 58
0 1 96
1 0 22
1 1 11
2 43 4 0 4
0 0 74
0 1 11
1 0 98
1 1 2
2 11 29 0 4
0 0 77
0 1 55
1 0 15
1 1 29
2 41 30 0 4
0 0 58
0 1 31
1 0 57
1 1 74
2 17 5 0 4
0 0 81
0 1 58
1 0 3
1 1 47
2 28 45 0 4
0 0 55
0 1 64
1 0 63
1 1 86
2 8 16 0 4
0 0 70
0 1 62
1 0 58
1 1 15
2 9 11 0 4
0 0 80
0 1 38
1 0 37
1 1 66
2 26 31 0 4
0 0 84
0 1 34
1 0 99
1 1 22
2 0 21 0 4
0 0 73
0 1 65
1 0 25
1 1 45
2 0 26 0 4
0 0 54
0 1 27
1 0 17
1 1 12
2 10 44 0 4
0 0 63
0 1 83
1 0 41
1 1 48
2 32 24 0 4
0 0 91
0 1 87
1 0 68
1 1 8
2 13 21 0 4
0 0 14
0 1 100
1 0 16
1 1 47
2 8 4 0 4
0 0 44
0 1 13
1 0 94
1 1 76
2 24 23 0 4
0 0 84
0 1 83
1 0 69
1 1 57
2 29 30 0 4
0 0 79
0 1 3
1 0 8
1 1 100
2 20 44 0 4
0 0 43
0 1 22
1 0 14
1 1 34
2 37 29 0 4
0 0 41
0 1 94
1 0 59
1 1 93
2 17 4 0 4
0 0 61
0 1 87
1 0 95
1 1 31
2 40 18 0 4
0 0 21
0 1 49
1 0 15
1 1 63
2 28 22 0 4
0 0 28
0 1 94
1 0 18
1 1 7
2 2 45 0 4
0 0 52
0 1 63
1 0 91
1 1 54
2 2 35 0 4
0 0 20
0 1 48
1 0 3
1 1 95
2 37 39 0 4
0 0 25
0 1 93
1 0 100
1 1 49
2 9 41 0 4
0 0 85
0 1 40
1 0 84
1 1 65
2 1 46 0 4
0 0 0
0 1 93
1 0 77
1 1 95
2 32 15 0 4
0 0 54
0 1 49
1 0 88
1 1 88
2 17 2 0 4
0 0 13
0 1 61
1 0 65
1 1 46
2 11 7 0 4
0 0 95
0 1 18
1 0 27
1 1 41
2 26 21 0 4
0 0 17
0 1 63
1 0 45
1 1 62
2 8 9 0 4
0 0 85
0 1 48
1 0 11
1 1 32
2 16 37 0 4
0 0 100
0 1 46
1 0 18
1 1 5
2 46 22 0 4
0 0 94
0 1 99
1 0 89
1 1 39
2 16 3 0 4
0 0 17
0 1 26
1 0 54
1 1 85
2 45 5 0 4
0 0 50
0 1 83
1 0 81
1 1 8
2 6 31 0 4
0 0 82
0 1 8
1 0 94
1 1 29
2 11 44 0 4
0 0 7
0 1 51
1 0 7
1 1 54
2 17 28 0 4
0 0 61
0 1 99
1 0 90
1 1 65
2 49 14 0 4
0 0 20
0 1 73
1 0 87
1 1 68
2 28 39 0 4
0 0 13
0 1 2
1 0 45
1 1 68
2 38 39 0 4
0 0 56
0 1 34
1 0 80
1 1 40
2 27 46 0 4
0 0 1
0 1 26
1 0 39
1 1 34
2 20 45 0 4
0 0 58
0 1 4
1 0 64
1 1 19
2 5 46 0 4
0 0 74
0 1 74
1 0 70
1 1 36
2 9 31 0 4
0 0 60
0 1 41
1 0 9
1 1 96
2 9 19 0 4
0 0 89
0 1 35
1 0 84
1 1 13
2 40 13 0 4
0 0 50
0 1 19
1 0 33
1 1 34
2 33 21 0 4
0 0 37
0 1 46
1 0 94
1 1 86
2 24 45 0 4
0 0 20
0 1 14
1 0 0
1 1 56
2 49 1 0 4
0 0 54
0 1 83
1 0 92
1 1 22
2 20 13 0 4
0 0 67
0 1 46
1 0 74
1 1 18
2 10 20 0 4
0 0 43
0 1 23
1 0 33
1 1 34
2 33 26 0 4
0 0 83
0 1 34
1 0 21
1 1 47
2 49 31 0 4
0 0 24
0 1 98
1 0 52
1 1 0
2 25 21 0 4
0 0 50
0 1 67
1 0 72
1 1 45
2 49 28 0 4
0 0 57
0 1 26
1 0 70
1 1 35
2 21 23 0 4
0 0 84
0 1 6
1 0 100
1 1 5
2 20 14 0 4
0 0 81
0 1 84
1 0 91
1 1 43
2 29 23 0 4
0 0 44
0 1 45
1 0 97
1 1 70
2 49 3 0 4
0 0 43
0 1 16
1 0 46
1 1 53
2 4 28 0 4
0 0 12
0 1 85
1 0 7
1 1 15
2 2 3 0 4
0 0 98
0 1 90
1 0 19
1 1 89
2 33 4 0 4
0 0 93
0 1 51
1 0 28
1 1 85
2 1 31 0 4
0 0 22
0 1 37
1 0 51
1 1 62
2 41 23 0 4
0 0 0
0 1 26
1 0 63
1 1 36
2 0 33 0 4
0 0 38
0 1 84
1 0 28
1 1 89
2 12 39 0 4
0 0 68
0 1 88
1 0 41
1 1 1
2 38 47 0 4
0 0 77
0 1 23
1 0 63
1 1 70
2 24 49 0 4
0 0 70
0 1 61
1 0 87
1 1 55
2 35 39 0 4
0 0 38
0 1 25
1 0 94
1 1 4
2 17 38 0 4
0 0 52
0 1 51
1 0 36
1 1 57
2 3 36 0 4
0 0 4
0 1 25
1 0 19
1 1 98
2 10 36 0 4
0 0 22
0 1 89
1 0 72
1 1 49
2 1 12 0 4
0 0 12
0 1 74
1 0 36
1 1 28
2 16 43 0 4
0 0 12
0 1 90
1 0 40
1 1 30
2 8 15 0 4
0 0 67
0 1 68
1 0 58
1 1 30
2 19 38 0 4
0 0 87
0 1 75
1 0 99
1 1 72
2 49 2 0 4
0 0 14
0 1 66
1 0 11
1 1 99
2 17 43 0 4
0 0 98
0 1 9
1 0 95
1 1 56
2 49 44 0 4
0 0 66
0 1 76
1 0 15
1 1 94
2 42 12 0 4
0 0 4
0 1 99
1 0 39
1 1 8
2 16 7 0 4
0 0 62
0 1 32
1 0 57
1 1 41
2 29 39 0 4
0 0 39
0 1 75
1 0 81
1 1 46
2 2 27 0 4
0 0 13
0 1 59
1 0 68
1 1 34
2 1 17 0 4
0 0 6
0 1 54
1 0 11
1 1 62
2 48 46 0 4
0 0 63
0 1 34
1 0 31
1 1 77
2 37 46 0 4
0 0 15
0 1 67
1 0 25
1 1 83
2 43 27 0 4
0 0 44
0 1 19
1 0 78
1 1 22
2 17 35 0 4
0 0 65
0 1 17
1 0 9
1 1 82
2 19 46 0 4
0 0 31
0 1 2
1 0 63
1 1 66
2 41 13 0 4
0 0 70
0 1 91
1 0 72
1 1 91
2 0 18 0 4
0 0 66
0 1 87
1 0 62
1 1 93
2 38 14 0 4
0 0 4
0 1 6
1 0 39
1 1 67
2 33 35 0 4
0 0 62
0 1 5
1 0 35
1 1 51
2 27 6 0 4
0 0 61
0 1 56
1 0 80
1 1 3
2 39 15 0 4
0 0 92
0 1 32
1 0 58
1 1 30
2 3 35 0 4
0 0 12
0 1 43
1 0 70
1 1 25
2 44 22 0 4
0 0 82
0 1 53
1 0 64
1 1 78
2 33 45 0 4
0 0 17
0 1 34
1 0 97
1 1 5
2 19 14 0 4
0 0 52
0 1 21
1 0 70
1 1 73
2 8 3 0 4
0 0 91
0 1 20
1 0 57
1 1 57
2 4 38 0 4
0 0 65
0 1 75
1 0 14
1 1 36
2 26 2 0 4
0 0 43
0 1 51
1 0 59
1 1 72
2 10 13 0 4
0 0 47
0 1 64
1 0 25
1 1 66
2 12 15 0 4
0 0 11
0 1 52
1 0 38
1 1 54
2 27 35 0 4
0 0 89
0 1 79
1 0 4
1 1 28
2 19 13 0 4
0 0 76
0 1 18
1 0 80
1 1 81
2 48 33 0 4
0 0 30
0 1 86
1 0 86
1 1 53
2 9 6 0 4
0 0 94
0 1 29
1 0 31
1 1 35
2 27 38 0 4
0 0 19
0 1 88
1 0 17
1 1 62
2 13 6 0 4
0 0 41
0 1 1
1 0 39
1 1 45
2 27 7 0 4
0 0 12
0 1 7
1 0 66
1 1 79
2 12 21 0 4
0 0 98
0 1 40
1 0 32
1 1 97
2 28 12 0 4
0 0 83
0 1 57
1 0 32
1 1 93
2 32 40 0 4
0 0 0
0 1 55
1 0 33
1 1 73
2 9 49 0 4
0 0 78
0 1 7
1 0 51
1 1 89
2 17 15 0 4
0 0 47
0 1 63
1 0 10
1 1 12
2 10 3 0 4
0 0 60
0 1 92
1 0 47
1 1 91
2 25 20 0 4
0 0 80
0 1 98
1 0 30
1 1 69
2 8 13 0 4
0 0 38
0 1 64
1 0 50
1 1 20
2 4 12 0 4
0 0 69
0 1 66
1 0 12
1 1 100
2 30 47 0 4
0 0 85
0 1 49
1 0 49
1 1 35
2 13 15 0 4
0 0 38
0 1 46
1 0 69
1 1 93
2 30 7 0 4
0 0 0
0 1 61
1 0 47
1 1 95
2 3 31 0 4
0 0 93
0 1 69
1 0 13
1 1 29
2 25 38 0 4
0 0 56
0 1 93
1 0 61
1 1 36
2 40 47 0 4
0 0 26
0 1 85
1 0 62
1 1 38
2 44 28 0 4
0 0 75
0 1 80
1 0 40
1 1 93
2 17 30 0 4
0 0 45
0 1 71
1 0 79
1 1 9
2 40 27 0 4
0 0 53
0 1 50
1 0 62
1 1 6
2 17 11 0 4
0 0 93
0 1 88
1 0 32
1 1 24
2 48 17 0 4
0 0 39
0 1 35
1 0 34
1 1 78
2 5 7 0 4
0 0 1
0 1 50
1 0 42
1 1 96
2 9 26 0 4
0 0 33
0 1 50
1 0 0
1 1 99
2 19 4 0 4
0 0 73
0 1 39
1 0 0
1 1 97
2 25 15 0 4
0 0 27
0 1 42
1 0 42
1 1 83
2 24 27 0 4
0 0 55
0 1 90
1 0 31
1 1 0
2 29 15 0 4
0 0 38
0 1 9
1 0 4
1 1 85
2 12 31 0 4
0 0 60
0 1 29
1 0 64
1 1 50
2 20 30 0 4
0 0 36
0 1 35
1 0 13
1 1 81
2 41 7 0 4
0 0 49
0 1 34
1 0 0
1 1 32
2 10 31 0 4
0 0 37
0 1 9
1 0 8
1 1 88
2 24 15 0 4
0 0 17
0 1 12
1 0 40
1 1 16
2 1 19 0 4
0 0 80
0 1 75
1 0 53
1 1 18
2 0 9 0 4
0 0 77
0 1 13
1 0 12
1 1 47
